Tried aggregator 1 time.
MIQCP Presolve eliminated 22315 rows and 2481 columns.
MIQCP Presolve modified 37 coefficients.
Reduced MIQCP has 59091 rows, 57948 columns, and 195369 nonzeros.
Reduced MIQCP has 534 binaries, 90 generals, 0 SOSs, and 0 indicators.
Reduced MIQCP has 11296 quadratic constraints.
Presolve time = 3.23 sec. (203.96 ticks)
Probing fixed 0 vars, tightened 39290 bounds.
Probing changed sense of 7 constraints.
Probing time = 2.02 sec. (235.47 ticks)
Cover probing fixed 0 vars, tightened 2929 bounds.
Clique table members: 4948.
MIP emphasis: balance optimality and feasibility.
MIP search method: dynamic search.
Parallel mode: deterministic, using up to 16 threads.
Root relaxation solution time = 41.81 sec. (27498.72 ticks)

        Nodes                                         Cuts/
   Node  Left     Objective  IInf  Best Integer    Best Bound    ItCnt     Gap

      0     0        9.0500     0                      0.0000    49358         
      0     0        9.0500   433                      9.0500    49358         
      0     0        9.0500   381                    Cuts: 49    50790         
      0     0        9.0500   428                    Cuts: 57    53263         
      0     0        9.0500   452                    Cuts: 13    55876         
      0     2        9.0500   339                      9.0500    55876         
Elapsed time = 108.30 sec. (55991.12 ticks, tree = 0.01 MB, solutions = 0)
      1     3        9.0500   555                      9.0500    63665         
      2     2    infeasible                            9.0500    66053         
      3     4        9.5837   510                      9.0500    69076         
      4     4        9.5944   383                      9.0500    72105         
      6     3    infeasible                            9.0500    74209         
      7     4       10.0565   697                      9.0500    73803         
      8     2    infeasible                            9.0500    78624         
      9     4       10.0565   663                      9.0500    78760         
     10     2    infeasible                            9.0500    81675         
     11     4       10.8629   538                      9.0500    81723         
Elapsed time = 150.66 sec. (86469.51 ticks, tree = 0.01 MB, solutions = 0)
     12     2    infeasible                            9.0500    84564         
     14     3        9.0500   423                      9.0500    63438         
     15     3       10.5583   309                      9.0500   104153         
     17     4       13.5750   360                      9.0500   107995         
     18     2    infeasible                            9.0500   116066         
     20     3        9.0500   501                      9.0500   111377         
     21     1    infeasible                            9.0500   139569         
     22     3        9.0500   486                      9.0500   142076         
     23     3        9.0500   474                      9.0500   144268         
     24     4        9.0500   450                      9.0500   144491         
Elapsed time = 230.38 sec. (140131.88 ticks, tree = 0.01 MB, solutions = 0)
     25     5        9.0500   531                      9.0500   144778         
     27     3     3641.2100   339                      9.0500   148395         
     31     7     3641.2100   310                      9.0500   149125         
     34     7        9.0500   399                      9.0500   152819         
     45     6    infeasible                            9.0500   171852         
     52     9     4578.5500   182                      9.0500   162895         
     56     5        9.0500   322                      9.0500   181201         
     58     4    infeasible                            9.0500   183156         
     61     6        9.9550   235                      9.0500   186271         
     62     5       13.4015   325                      9.0500   196978         
Elapsed time = 287.44 sec. (158622.89 ticks, tree = 0.01 MB, solutions = 0)
     68     6       13.7717   307                      9.0500   197105         
     72     6       18.1000    20                      9.0500   203297         
     75     8       36.2000    22                      9.0500   204995         
     77     7       10.7401   406                      9.0500   204283         
     79     8       10.7401   412                      9.0500   208528         
     80     6    infeasible                            9.0500   210938         
     85     8       10.8159   390                      9.0500   211435         
     88     7     1839.3000   150                     11.0611   228496         
     90     7     1839.3000   125                     18.1000   229209         
     92     7     1839.3000   231                     18.1000   230293         
Elapsed time = 339.69 sec. (174498.22 ticks, tree = 0.01 MB, solutions = 0)
     94     5    infeasible                           18.1000   231921         
*    95     6      integral     0     1017.4600       18.1000   204951   98.22%
     95     6        cutoff           1017.4600       18.1000   204951   98.22%
     96     5  -1.00000e+75     0     1017.4600       18.1000   207297   98.22%
     96     5        cutoff           1017.4600       18.1000   207297   98.22%
     97     7      945.1700     4     1017.4600       18.1000   207296   98.22%
*    98     2      integral     0      945.1700       18.1000   233924   98.09%
     98     2        cutoff            945.1700       18.1000   233924   98.09%
    100     4        cutoff            945.1700       18.1000   210371   98.09%

Clique cuts applied:  4
Implied bound cuts applied:  7
Mixed integer rounding cuts applied:  5
Zero-half cuts applied:  2
Cone linearizations applied:  56

Root node processing (before b&c):
  Real time             =  104.53 sec. (55125.21 ticks)
Parallel b&c, 16 threads:
  Real time             =  488.91 sec. (421468.33 ticks)
  Sync time (average)   =  415.27 sec.
  Wait time (average)   =    0.30 sec.
                          ------------
Total (root+branch&cut) =  593.44 sec. (476593.53 ticks)
